\ Generated by MPModelProtoExporter
\   Name             : 
\   Format           : Free
\   Constraints      : 160
\   Variables        : 21
\     Binary         : 0
\     Integer        : 0
\     Continuous     : 21
Maximize
 Obj: -1 _1 -1 _2 -1 _3 -1 _4 -3 _5 +1 _0CN_1 +1 _0CT_2 +1 _0IT1_3 +1 _0IT2_4 +1 _0MC_1_2_5 +1 _0MI_3_5 +1 _0MI_IDX_4_5 +1 _0T_5 
Subject to
 Mono_Ineq.__H(0CN_1)____H(0CN): -1 _0CN +1 _0CN_1  >= 0
 Mono_Ineq.__H(0CN_1)____H(1): -1 _1 +1 _0CN_1  >= 0
 Additivity_Ineq.__H(0CN_1)____H(0CN)___H(1): -1 _1 -1 _0CN +1 _0CN_1  <= 0
 Mono_Ineq.__H(0CT_2)____H(0CT): -1 _0CT +1 _0CT_2  >= 0
 Mono_Ineq.__H(0CT_2)____H(2): -1 _2 +1 _0CT_2  >= 0
 Additivity_Ineq.__H(0CT_2)____H(0CT)___H(2): -1 _2 -1 _0CT +1 _0CT_2  <= 0
 Mono_Ineq.__H(0IT1_3)____H(0IT1): -1 _0IT1 +1 _0IT1_3  >= 0
 Mono_Ineq.__H(0IT1_3)____H(3): -1 _3 +1 _0IT1_3  >= 0
 Additivity_Ineq.__H(0IT1_3)____H(0IT1)___H(3): -1 _3 -1 _0IT1 +1 _0IT1_3  <= 0
 Mono_Ineq.__H(0IT2_4)____H(0IT2): -1 _0IT2 +1 _0IT2_4  >= 0
 Mono_Ineq.__H(0IT2_4)____H(4): -1 _4 +1 _0IT2_4  >= 0
 Additivity_Ineq.__H(0IT2_4)____H(0IT2)___H(4): -1 _4 -1 _0IT2 +1 _0IT2_4  <= 0
 Mono_Ineq.__H(0MC_1_2_5)____H(0MC): -1 _0MC +1 _0MC_1_2_5  >= 0
 Mono_Ineq.__H(0MC_1_2_5)____H(5): -1 _5 +1 _0MC_1_2_5  >= 0
 Mono_Ineq.__H(0MC_1_2_5)____H(2): -1 _2 +1 _0MC_1_2_5  >= 0
 Mono_Ineq.__H(0MC_1_2_5)____H(1): -1 _1 +1 _0MC_1_2_5  >= 0
 Additivity_Ineq.__H(0MC_1_2_5)____H(0MC)___H(5)___H(2)___H(1): -1 _1 -1 _2 -1 _5 -1 _0MC +1 _0MC_1_2_5  <= 0
 Mono_Ineq.__H(0MI_3_5)____H(0MI): -1 _0MI +1 _0MI_3_5  >= 0
 Mono_Ineq.__H(0MI_3_5)____H(5): -1 _5 +1 _0MI_3_5  >= 0
 Mono_Ineq.__H(0MI_3_5)____H(3): -1 _3 +1 _0MI_3_5  >= 0
 Additivity_Ineq.__H(0MI_3_5)____H(0MI)___H(5)___H(3): -1 _3 -1 _5 -1 _0MI +1 _0MI_3_5  <= 0
 Mono_Ineq.__H(0MI_IDX_4_5)____H(0MI_IDX): -1 _0MI_IDX +1 _0MI_IDX_4_5  >= 0
 Mono_Ineq.__H(0MI_IDX_4_5)____H(5): -1 _5 +1 _0MI_IDX_4_5  >= 0
 Mono_Ineq.__H(0MI_IDX_4_5)____H(4): -1 _4 +1 _0MI_IDX_4_5  >= 0
 Additivity_Ineq.__H(0MI_IDX_4_5)____H(0MI_IDX)___H(5)___H(4): -1 _4 -1 _5 -1 _0MI_IDX +1 _0MI_IDX_4_5  <= 0
 Mono_Ineq.__H(0T_5)____H(0T): -1 _0T +1 _0T_5  >= 0
 Mono_Ineq.__H(0T_5)____H(5): -1 _5 +1 _0T_5  >= 0
 Additivity_Ineq.__H(0T_5)____H(0T)___H(5): -1 _5 -1 _0T +1 _0T_5  <= 0
 Statistics_Ineq._1__1___h(0CN_1)___0___h(1)____1___log2(234997.0)_|_1_|_CN.ID: +1 _0CN_1  <= 17.8423
 Statistics_Ineq._2__2___h(0CN_1)___1___h(1)____2___log2(484.76489146801873)_|_2_|_CN.ID: -1 _1 +2 _0CN_1  <= 17.8423
 Statistics_Ineq._3__3___h(0CN_1)___2___h(1)____3___log2(61.709795330658544)_|_3_|_CN.ID: -2 _1 +3 _0CN_1  <= 17.8423
 Statistics_Ineq._4__4___h(0CN_1)___3___h(1)____4___log2(22.017377034243175)_|_4_|_CN.ID: -3 _1 +4 _0CN_1  <= 17.8423
 Statistics_Ineq._5__5___h(0CN_1)___4___h(1)____5___log2(11.863489865870786)_|_5_|_CN.ID: -4 _1 +5 _0CN_1  <= 17.8423
 Statistics_Ineq._6__6___h(0CN_1)___5___h(1)____6___log2(7.855558244368031)_|_6_|_CN.ID: -5 _1 +6 _0CN_1  <= 17.8423
 Statistics_Ineq._7__7___h(0CN_1)___6___h(1)____7___log2(5.851869288664952)_|_7_|_CN.ID: -6 _1 +7 _0CN_1  <= 17.8423
 Statistics_Ineq._8__8___h(0CN_1)___7___h(1)____8___log2(4.692267792256019)_|_8_|_CN.ID: -7 _1 +8 _0CN_1  <= 17.8423
 Statistics_Ineq._9__9___h(0CN_1)___8___h(1)____9___log2(3.95170668822707)_|_9_|_CN.ID: -8 _1 +9 _0CN_1  <= 17.8423
 Statistics_Ineq._10__10___h(0CN_1)___9___h(1)____10___log2(3.4443417173490185)_|_10_|_CN.ID: -9 _1 +10 _0CN_1  <= 17.8423
 Statistics_Ineq._11__h(0CN_1)___h(1)____log2(1.0)_|_inf_|_CN.ID: -1 _1 +1 _0CN_1  <= 0
 Statistics_Ineq._12__1___h(0CT_2)___0___h(2)____1___log2(2.0)_|_1_|_CT.ID: +1 _0CT_2  <= 1
 Statistics_Ineq._13__2___h(0CT_2)___1___h(2)____2___log2(1.4142135623730951)_|_2_|_CT.ID: -1 _2 +2 _0CT_2  <= 1
 Statistics_Ineq._14__3___h(0CT_2)___2___h(2)____3___log2(1.2599210498948732)_|_3_|_CT.ID: -2 _2 +3 _0CT_2  <= 1
 Statistics_Ineq._15__4___h(0CT_2)___3___h(2)____4___log2(1.189207115002721)_|_4_|_CT.ID: -3 _2 +4 _0CT_2  <= 1
 Statistics_Ineq._16__5___h(0CT_2)___4___h(2)____5___log2(1.148698354997035)_|_5_|_CT.ID: -4 _2 +5 _0CT_2  <= 1
 Statistics_Ineq._17__6___h(0CT_2)___5___h(2)____6___log2(1.122462048309373)_|_6_|_CT.ID: -5 _2 +6 _0CT_2  <= 1
 Statistics_Ineq._18__7___h(0CT_2)___6___h(2)____7___log2(1.1040895136738123)_|_7_|_CT.ID: -6 _2 +7 _0CT_2  <= 1
 Statistics_Ineq._19__8___h(0CT_2)___7___h(2)____8___log2(1.0905077326652577)_|_8_|_CT.ID: -7 _2 +8 _0CT_2  <= 1
 Statistics_Ineq._20__9___h(0CT_2)___8___h(2)____9___log2(1.080059738892306)_|_9_|_CT.ID: -8 _2 +9 _0CT_2  <= 1
 Statistics_Ineq._21__10___h(0CT_2)___9___h(2)____10___log2(1.0717734625362931)_|_10_|_CT.ID: -9 _2 +10 _0CT_2  <= 1
 Statistics_Ineq._22__h(0CT_2)___h(2)____log2(1.0)_|_inf_|_CT.ID: -1 _2 +1 _0CT_2  <= 0
 Statistics_Ineq._23__1___h(0IT1_3)___0___h(3)____1___log2(113.0)_|_1_|_IT1.ID: +1 _0IT1_3  <= 6.82018
 Statistics_Ineq._24__2___h(0IT1_3)___1___h(3)____2___log2(10.63014581273465)_|_2_|_IT1.ID: -1 _3 +2 _0IT1_3  <= 6.82018
 Statistics_Ineq._25__3___h(0IT1_3)___2___h(3)____3___log2(4.834588127111639)_|_3_|_IT1.ID: -2 _3 +3 _0IT1_3  <= 6.82018
 Statistics_Ineq._26__4___h(0IT1_3)___3___h(3)____4___log2(3.260390438695134)_|_4_|_IT1.ID: -3 _3 +4 _0IT1_3  <= 6.82018
 Statistics_Ineq._27__5___h(0IT1_3)___4___h(3)____5___log2(2.574042354407865)_|_5_|_IT1.ID: -4 _3 +5 _0IT1_3  <= 6.82018
 Statistics_Ineq._28__6___h(0IT1_3)___5___h(3)____6___log2(2.198769684871892)_|_6_|_IT1.ID: -5 _3 +6 _0IT1_3  <= 6.82018
 Statistics_Ineq._29__7___h(0IT1_3)___6___h(3)____7___log2(1.9647030552069988)_|_7_|_IT1.ID: -6 _3 +7 _0IT1_3  <= 6.82018
 Statistics_Ineq._30__8___h(0IT1_3)___7___h(3)____8___log2(1.8056551272862529)_|_8_|_IT1.ID: -7 _3 +8 _0IT1_3  <= 6.82018
 Statistics_Ineq._31__9___h(0IT1_3)___8___h(3)____9___log2(1.6909074089110399)_|_9_|_IT1.ID: -8 _3 +9 _0IT1_3  <= 6.82018
 Statistics_Ineq._32__10___h(0IT1_3)___9___h(3)____10___log2(1.6043822345089294)_|_10_|_IT1.ID: -9 _3 +10 _0IT1_3  <= 6.82018
 Statistics_Ineq._33__h(0IT1_3)___h(3)____log2(1.0)_|_inf_|_IT1.ID: -1 _3 +1 _0IT1_3  <= 0
 Statistics_Ineq._34__1___h(0IT2_4)___0___h(4)____1___log2(8.0)_|_1_|_IT2.ID: +1 _0IT2_4  <= 3
 Statistics_Ineq._35__2___h(0IT2_4)___1___h(4)____2___log2(2.8284271247461903)_|_2_|_IT2.ID: -1 _4 +2 _0IT2_4  <= 3
 Statistics_Ineq._36__3___h(0IT2_4)___2___h(4)____3___log2(2.0)_|_3_|_IT2.ID: -2 _4 +3 _0IT2_4  <= 3
 Statistics_Ineq._37__4___h(0IT2_4)___3___h(4)____4___log2(1.681792830507429)_|_4_|_IT2.ID: -3 _4 +4 _0IT2_4  <= 3
 Statistics_Ineq._38__5___h(0IT2_4)___4___h(4)____5___log2(1.5157165665103982)_|_5_|_IT2.ID: -4 _4 +5 _0IT2_4  <= 3
 Statistics_Ineq._39__6___h(0IT2_4)___5___h(4)____6___log2(1.414213562373095)_|_6_|_IT2.ID: -5 _4 +6 _0IT2_4  <= 3
 Statistics_Ineq._40__7___h(0IT2_4)___6___h(4)____7___log2(1.3459001926323562)_|_7_|_IT2.ID: -6 _4 +7 _0IT2_4  <= 3
 Statistics_Ineq._41__8___h(0IT2_4)___7___h(4)____8___log2(1.2968395546510096)_|_8_|_IT2.ID: -7 _4 +8 _0IT2_4  <= 3
 Statistics_Ineq._42__9___h(0IT2_4)___8___h(4)____9___log2(1.2599210498948732)_|_9_|_IT2.ID: -8 _4 +9 _0IT2_4  <= 3
 Statistics_Ineq._43__10___h(0IT2_4)___9___h(4)____10___log2(1.2311444133449163)_|_10_|_IT2.ID: -9 _4 +10 _0IT2_4  <= 3
 Statistics_Ineq._44__h(0IT2_4)___h(4)____log2(1.0)_|_inf_|_IT2.ID: -1 _4 +1 _0IT2_4  <= 0
 Statistics_Ineq._45__1___h(0MC_1_2_5)___0___h(5)____1___log2(1901965.0)_|_1_|_MC.MOVIE_ID: +1 _0MC_1_2_5  <= 20.8591
 Statistics_Ineq._46__2___h(0MC_1_2_5)___1___h(5)____2___log2(3660.8208095999453)_|_2_|_MC.MOVIE_ID: -1 _5 +2 _0MC_1_2_5  <= 23.6759
 Statistics_Ineq._47__3___h(0MC_1_2_5)___2___h(5)____3___log2(607.4345116171978)_|_3_|_MC.MOVIE_ID: -2 _5 +3 _0MC_1_2_5  <= 27.7398
 Statistics_Ineq._48__4___h(0MC_1_2_5)___3___h(5)____4___log2(284.00551012405583)_|_4_|_MC.MOVIE_ID: -3 _5 +4 _0MC_1_2_5  <= 32.5991
 Statistics_Ineq._49__5___h(0MC_1_2_5)___4___h(5)____5___log2(190.20771612014772)_|_5_|_MC.MOVIE_ID: -4 _5 +5 _0MC_1_2_5  <= 37.8572
 Statistics_Ineq._50__6___h(0MC_1_2_5)___5___h(5)____6___log2(149.8971085241588)_|_6_|_MC.MOVIE_ID: -5 _5 +6 _0MC_1_2_5  <= 43.367
 Statistics_Ineq._51__7___h(0MC_1_2_5)___6___h(5)____7___log2(128.9499725547047)_|_7_|_MC.MOVIE_ID: -6 _5 +7 _0MC_1_2_5  <= 49.0747
 Statistics_Ineq._52__8___h(0MC_1_2_5)___7___h(5)____8___log2(116.88883900170464)_|_8_|_MC.MOVIE_ID: -7 _5 +8 _0MC_1_2_5  <= 54.9519
 Statistics_Ineq._53__9___h(0MC_1_2_5)___8___h(5)____9___log2(109.52056838992583)_|_9_|_MC.MOVIE_ID: -8 _5 +9 _0MC_1_2_5  <= 60.9755
 Statistics_Ineq._54__10___h(0MC_1_2_5)___9___h(5)____10___log2(104.8481910727191)_|_10_|_MC.MOVIE_ID: -9 _5 +10 _0MC_1_2_5  <= 67.1216
 Statistics_Ineq._55__h(0MC_1_2_5)___h(5)____log2(94.0)_|_inf_|_MC.MOVIE_ID: -1 _5 +1 _0MC_1_2_5  <= 6.55459
 Statistics_Ineq._56__1___h(0MC_1_2_5)___0___h(2)____1___log2(2609129.0)_|_1_|_MC.COMPANY_TYPE_ID: +1 _0MC_1_2_5  <= 21.3151
 Statistics_Ineq._57__2___h(0MC_1_2_5)___1___h(2)____2___log2(1845430.977361386)_|_2_|_MC.COMPANY_TYPE_ID: -1 _2 +2 _0MC_1_2_5  <= 41.6311
 Statistics_Ineq._58__3___h(0MC_1_2_5)___2___h(2)____3___log2(1644535.5505828804)_|_3_|_MC.COMPANY_TYPE_ID: -2 _2 +3 _0MC_1_2_5  <= 61.9477
 Statistics_Ineq._59__4___h(0MC_1_2_5)___3___h(2)____4___log2(1552652.8676006738)_|_4_|_MC.COMPANY_TYPE_ID: -3 _2 +4 _0MC_1_2_5  <= 82.2652
 Statistics_Ineq._60__5___h(0MC_1_2_5)___4___h(2)____5___log2(1500166.817088087)_|_5_|_MC.COMPANY_TYPE_ID: -4 _2 +5 _0MC_1_2_5  <= 102.583
 Statistics_Ineq._61__6___h(0MC_1_2_5)___5___h(2)____6___log2(1466295.809685982)_|_6_|_MC.COMPANY_TYPE_ID: -5 _2 +6 _0MC_1_2_5  <= 122.902
 Statistics_Ineq._62__7___h(0MC_1_2_5)___6___h(2)____7___log2(1442680.6626064067)_|_7_|_MC.COMPANY_TYPE_ID: -6 _2 +7 _0MC_1_2_5  <= 143.222
 Statistics_Ineq._63__8___h(0MC_1_2_5)___7___h(2)____8___log2(1425312.9782620256)_|_8_|_MC.COMPANY_TYPE_ID: -7 _2 +8 _0MC_1_2_5  <= 163.543
 Statistics_Ineq._64__9___h(0MC_1_2_5)___8___h(2)____9___log2(1412031.354243233)_|_9_|_MC.COMPANY_TYPE_ID: -8 _2 +9 _0MC_1_2_5  <= 183.864
 Statistics_Ineq._65__10___h(0MC_1_2_5)___9___h(2)____10___log2(1401567.7204422245)_|_10_|_MC.COMPANY_TYPE_ID: -9 _2 +10 _0MC_1_2_5  <= 204.186
 Statistics_Ineq._66__h(0MC_1_2_5)___h(2)____log2(1334883.0)_|_inf_|_MC.COMPANY_TYPE_ID: -1 _2 +1 _0MC_1_2_5  <= 20.3483
 Statistics_Ineq._67__1___h(0MC_1_2_5)___0___h(1)____1___log2(2609129.0)_|_1_|_MC.COMPANY_ID: +1 _0MC_1_2_5  <= 21.3151
 Statistics_Ineq._68__2___h(0MC_1_2_5)___1___h(1)____2___log2(106883.15010795668)_|_2_|_MC.COMPANY_ID: -1 _1 +2 _0MC_1_2_5  <= 33.4113
 Statistics_Ineq._69__3___h(0MC_1_2_5)___2___h(1)____3___log2(75788.07259073698)_|_3_|_MC.COMPANY_ID: -2 _1 +3 _0MC_1_2_5  <= 48.629
 Statistics_Ineq._70__4___h(0MC_1_2_5)___3___h(1)____4___log2(68743.68174597787)_|_4_|_MC.COMPANY_ID: -3 _1 +4 _0MC_1_2_5  <= 64.2758
 Statistics_Ineq._71__5___h(0MC_1_2_5)___4___h(1)____5___log2(65836.53118034896)_|_5_|_MC.COMPANY_ID: -4 _1 +5 _0MC_1_2_5  <= 80.033
 Statistics_Ineq._72__6___h(0MC_1_2_5)___5___h(1)____6___log2(64352.605232193164)_|_6_|_MC.COMPANY_ID: -5 _1 +6 _0MC_1_2_5  <= 95.8423
 Statistics_Ineq._73__7___h(0MC_1_2_5)___6___h(1)____7___log2(63514.550164509055)_|_7_|_MC.COMPANY_ID: -6 _1 +7 _0MC_1_2_5  <= 111.684
 Statistics_Ineq._74__8___h(0MC_1_2_5)___7___h(1)____8___log2(63012.11279193569)_|_8_|_MC.COMPANY_ID: -7 _1 +8 _0MC_1_2_5  <= 127.547
 Statistics_Ineq._75__9___h(0MC_1_2_5)___8___h(1)____9___log2(62698.45498555785)_|_9_|_MC.COMPANY_ID: -8 _1 +9 _0MC_1_2_5  <= 143.425
 Statistics_Ineq._76__10___h(0MC_1_2_5)___9___h(1)____10___log2(62496.76791365353)_|_10_|_MC.COMPANY_ID: -9 _1 +10 _0MC_1_2_5  <= 159.315
 Statistics_Ineq._77__h(0MC_1_2_5)___h(1)____log2(62075.0)_|_inf_|_MC.COMPANY_ID: -1 _1 +1 _0MC_1_2_5  <= 15.9217
 Statistics_Ineq._78__1___h(0MI_3_5)___0___h(5)____1___log2(8927314.0)_|_1_|_MI.MOVIE_ID: +1 _0MI_3_5  <= 23.0898
 Statistics_Ineq._79__2___h(0MI_3_5)___1___h(5)____2___log2(22868.47791174568)_|_2_|_MI.MOVIE_ID: -1 _5 +2 _0MI_3_5  <= 28.9621
 Statistics_Ineq._80__3___h(0MI_3_5)___2___h(5)____3___log2(5534.065831001275)_|_3_|_MI.MOVIE_ID: -2 _5 +3 _0MI_3_5  <= 37.3024
 Statistics_Ineq._81__4___h(0MI_3_5)___3___h(5)____4___log2(3539.633518378824)_|_4_|_MI.MOVIE_ID: -3 _5 +4 _0MI_3_5  <= 47.1575
 Statistics_Ineq._82__5___h(0MI_3_5)___4___h(5)____5___log2(3106.3040766980107)_|_5_|_MI.MOVIE_ID: -4 _5 +5 _0MI_3_5  <= 58.0049
 Statistics_Ineq._83__6___h(0MI_3_5)___5___h(5)____6___log2(2993.7440706421207)_|_6_|_MI.MOVIE_ID: -5 _5 +6 _0MI_3_5  <= 69.2864
 Statistics_Ineq._84__7___h(0MI_3_5)___6___h(5)____7___log2(2958.7564854889574)_|_7_|_MI.MOVIE_ID: -6 _5 +7 _0MI_3_5  <= 80.7154
 Statistics_Ineq._85__8___h(0MI_3_5)___7___h(5)____8___log2(2946.1084017705402)_|_8_|_MI.MOVIE_ID: -7 _5 +8 _0MI_3_5  <= 92.1968
 Statistics_Ineq._86__9___h(0MI_3_5)___8___h(5)____9___log2(2941.037811742483)_|_9_|_MI.MOVIE_ID: -8 _5 +9 _0MI_3_5  <= 103.699
 Statistics_Ineq._87__10___h(0MI_3_5)___9___h(5)____10___log2(2938.861369246534)_|_10_|_MI.MOVIE_ID: -9 _5 +10 _0MI_3_5  <= 115.21
 Statistics_Ineq._88__h(0MI_3_5)___h(5)____log2(2937.0)_|_inf_|_MI.MOVIE_ID: -1 _5 +1 _0MI_3_5  <= 11.5201
 Statistics_Ineq._89__1___h(0MI_3_5)___0___h(3)____1___log2(14835720.0)_|_1_|_MI.INFO_TYPE_ID: +1 _0MI_3_5  <= 23.8226
 Statistics_Ineq._90__2___h(0MI_3_5)___1___h(3)____2___log2(4572034.223464868)_|_2_|_MI.INFO_TYPE_ID: -1 _3 +2 _0MI_3_5  <= 44.2488
 Statistics_Ineq._91__3___h(0MI_3_5)___2___h(3)____3___log2(3486243.0281909658)_|_3_|_MI.INFO_TYPE_ID: -2 _3 +3 _0MI_3_5  <= 65.1997
 Statistics_Ineq._92__4___h(0MI_3_5)___3___h(3)____4___log2(3193457.0484238626)_|_4_|_MI.INFO_TYPE_ID: -3 _3 +4 _0MI_3_5  <= 86.4268
 Statistics_Ineq._93__5___h(0MI_3_5)___4___h(3)____5___log2(3095215.672236246)_|_5_|_MI.INFO_TYPE_ID: -4 _3 +5 _0MI_3_5  <= 107.808
 Statistics_Ineq._94__6___h(0MI_3_5)___5___h(3)____6___log2(3059428.0080923685)_|_6_|_MI.INFO_TYPE_ID: -5 _3 +6 _0MI_3_5  <= 129.269
 Statistics_Ineq._95__7___h(0MI_3_5)___6___h(3)____7___log2(3045794.1446837164)_|_7_|_MI.INFO_TYPE_ID: -6 _3 +7 _0MI_3_5  <= 150.769
 Statistics_Ineq._96__8___h(0MI_3_5)___7___h(3)____8___log2(3040432.0968020344)_|_8_|_MI.INFO_TYPE_ID: -7 _3 +8 _0MI_3_5  <= 172.287
 Statistics_Ineq._97__9___h(0MI_3_5)___8___h(3)____9___log2(3038268.697191814)_|_9_|_MI.INFO_TYPE_ID: -8 _3 +9 _0MI_3_5  <= 193.813
 Statistics_Ineq._98__10___h(0MI_3_5)___9___h(3)____10___log2(3037376.9198407093)_|_10_|_MI.INFO_TYPE_ID: -9 _3 +10 _0MI_3_5  <= 215.344
 Statistics_Ineq._99__h(0MI_3_5)___h(3)____log2(3036719.0)_|_inf_|_MI.INFO_TYPE_ID: -1 _3 +1 _0MI_3_5  <= 21.5341
 Statistics_Ineq._100__1___h(0MI_IDX_4_5)___0___h(5)____1___log2(1380035.0)_|_1_|_MI_IDX.MOVIE_ID: +1 _0MI_IDX_4_5  <= 20.3963
 Statistics_Ineq._101__2___h(0MI_IDX_4_5)___1___h(5)____2___log2(2034.9803438854146)_|_2_|_MI_IDX.MOVIE_ID: -1 _5 +2 _0MI_IDX_4_5  <= 21.9816
 Statistics_Ineq._102__3___h(0MI_IDX_4_5)___2___h(5)____3___log2(231.63047471014258)_|_3_|_MI_IDX.MOVIE_ID: -2 _5 +3 _0MI_IDX_4_5  <= 23.567
 Statistics_Ineq._103__4___h(0MI_IDX_4_5)___3___h(5)____4___log2(78.14937952029435)_|_4_|_MI_IDX.MOVIE_ID: -3 _5 +4 _0MI_IDX_4_5  <= 25.1527
 Statistics_Ineq._104__5___h(0MI_IDX_4_5)___4___h(5)____5___log2(40.72080256273645)_|_5_|_MI_IDX.MOVIE_ID: -4 _5 +5 _0MI_IDX_4_5  <= 26.7385
 Statistics_Ineq._105__6___h(0MI_IDX_4_5)___5___h(5)____6___log2(26.368848575018564)_|_6_|_MI_IDX.MOVIE_ID: -5 _5 +6 _0MI_IDX_4_5  <= 28.3246
 Statistics_Ineq._106__7___h(0MI_IDX_4_5)___6___h(5)____7___log2(19.333202674531634)_|_7_|_MI_IDX.MOVIE_ID: -6 _5 +7 _0MI_IDX_4_5  <= 29.9111
 Statistics_Ineq._107__8___h(0MI_IDX_4_5)___7___h(5)____8___log2(15.319065986841762)_|_8_|_MI_IDX.MOVIE_ID: -7 _5 +8 _0MI_IDX_4_5  <= 31.4981
 Statistics_Ineq._108__9___h(0MI_IDX_4_5)___8___h(5)____9___log2(12.783317244944898)_|_9_|_MI_IDX.MOVIE_ID: -8 _5 +9 _0MI_IDX_4_5  <= 33.0857
 Statistics_Ineq._109__10___h(0MI_IDX_4_5)___9___h(5)____10___log2(11.061128564875332)_|_10_|_MI_IDX.MOVIE_ID: -9 _5 +10 _0MI_IDX_4_5  <= 34.6743
 Statistics_Ineq._110__h(0MI_IDX_4_5)___h(5)____log2(4.0)_|_inf_|_MI_IDX.MOVIE_ID: -1 _5 +1 _0MI_IDX_4_5  <= 2
 Statistics_Ineq._111__1___h(0MI_IDX_4_5)___0___h(4)____1___log2(1380035.0)_|_1_|_MI_IDX.INFO_TYPE_ID: +1 _0MI_IDX_4_5  <= 20.3963
 Statistics_Ineq._112__2___h(0MI_IDX_4_5)___1___h(4)____2___log2(796613.5069624416)_|_2_|_MI_IDX.INFO_TYPE_ID: -1 _4 +2 _0MI_IDX_4_5  <= 39.207
 Statistics_Ineq._113__3___h(0MI_IDX_4_5)___2___h(4)____3___log2(663326.6336354722)_|_3_|_MI_IDX.INFO_TYPE_ID: -2 _4 +3 _0MI_IDX_4_5  <= 58.0181
 Statistics_Ineq._114__4___h(0MI_IDX_4_5)___3___h(4)____4___log2(605295.3404071796)_|_4_|_MI_IDX.INFO_TYPE_ID: -3 _4 +4 _0MI_IDX_4_5  <= 76.8291
 Statistics_Ineq._115__5___h(0MI_IDX_4_5)___4___h(4)____5___log2(572942.8024026672)_|_5_|_MI_IDX.INFO_TYPE_ID: -4 _4 +5 _0MI_IDX_4_5  <= 95.6402
 Statistics_Ineq._116__6___h(0MI_IDX_4_5)___5___h(4)____6___log2(552340.9291093226)_|_6_|_MI_IDX.INFO_TYPE_ID: -5 _4 +6 _0MI_IDX_4_5  <= 114.451
 Statistics_Ineq._117__7___h(0MI_IDX_4_5)___6___h(4)____7___log2(538080.4290580386)_|_7_|_MI_IDX.INFO_TYPE_ID: -6 _4 +7 _0MI_IDX_4_5  <= 133.262
 Statistics_Ineq._118__8___h(0MI_IDX_4_5)___7___h(4)____8___log2(527627.1974005605)_|_8_|_MI_IDX.INFO_TYPE_ID: -7 _4 +8 _0MI_IDX_4_5  <= 152.073
 Statistics_Ineq._119__9___h(0MI_IDX_4_5)___8___h(4)____9___log2(519637.5060761928)_|_9_|_MI_IDX.INFO_TYPE_ID: -8 _4 +9 _0MI_IDX_4_5  <= 170.884
 Statistics_Ineq._120__10___h(0MI_IDX_4_5)___9___h(4)____10___log2(513332.9508175439)_|_10_|_MI_IDX.INFO_TYPE_ID: -9 _4 +10 _0MI_IDX_4_5  <= 189.695
 Statistics_Ineq._121__h(0MI_IDX_4_5)___h(4)____log2(459925.0)_|_inf_|_MI_IDX.INFO_TYPE_ID: -1 _4 +1 _0MI_IDX_4_5  <= 18.811
 Statistics_Ineq._122__1___h(0T_5)___0___h(5)____1___log2(524288.0)_|_1_|_T.ID: +1 _0T_5  <= 19
 Statistics_Ineq._123__2___h(0T_5)___1___h(5)____2___log2(724.0773439350247)_|_2_|_T.ID: -1 _5 +2 _0T_5  <= 19
 Statistics_Ineq._124__3___h(0T_5)___2___h(5)____3___log2(80.63494719327186)_|_3_|_T.ID: -2 _5 +3 _0T_5  <= 19
 Statistics_Ineq._125__4___h(0T_5)___3___h(5)____4___log2(26.908685288118864)_|_4_|_T.ID: -3 _5 +4 _0T_5  <= 19
 Statistics_Ineq._126__5___h(0T_5)___4___h(5)____5___log2(13.928809012737988)_|_5_|_T.ID: -4 _5 +5 _0T_5  <= 19
 Statistics_Ineq._127__6___h(0T_5)___5___h(5)____6___log2(8.979696386474982)_|_6_|_T.ID: -5 _5 +6 _0T_5  <= 19
 Statistics_Ineq._128__7___h(0T_5)___6___h(5)____7___log2(6.562682848061103)_|_7_|_T.ID: -6 _5 +7 _0T_5  <= 19
 Statistics_Ineq._129__8___h(0T_5)___7___h(5)____8___log2(5.187358218604039)_|_8_|_T.ID: -7 _5 +8 _0T_5  <= 19
 Statistics_Ineq._130__9___h(0T_5)___8___h(5)____9___log2(4.320238955569224)_|_9_|_T.ID: -8 _5 +9 _0T_5  <= 19
 Statistics_Ineq._131__10___h(0T_5)___9___h(5)____10___log2(3.73213196614723)_|_10_|_T.ID: -9 _5 +10 _0T_5  <= 19
 Statistics_Ineq._132__h(0T_5)___h(5)____log2(1.0)_|_inf_|_T.ID: -1 _5 +1 _0T_5  <= 0
Bounds
 0 <= _1
 0 <= _2
 0 <= _3
 0 <= _4
 0 <= _5
 0 <= _0CN
 0 <= _0CN_1
 0 <= _0CT
 0 <= _0CT_2
 0 <= _0IT1
 0 <= _0IT1_3
 0 <= _0IT2
 0 <= _0IT2_4
 0 <= _0MC
 0 <= _0MC_1_2_5
 0 <= _0MI
 0 <= _0MI_3_5
 0 <= _0MI_IDX
 0 <= _0MI_IDX_4_5
 0 <= _0T
 0 <= _0T_5
End
